7739 12261 1116
8835 10165 1062
5429 13571 1058
8327 11673 1100
9071 9929 1024
9376 7624 884
5161 13839 953
8645 11355 1064
6124 11876 1151
5750 12250 1145
7493 10507 1151
6426 10574 1159
8871 11129 1033
8291 10709 1129
8465 10535 1117
7137 12863 1077
6203 12797 1119
9316 9684 924
9255 9745 977
4694 13306 1091
6611 13389 1040
7703 11297 1145
4127 13873 898
5237 13763 1036
5582 11418 1158
7981 10019 1139
6670 12330 1142
8227 11773 1104
4161 13839 955
6582 11418 1156
7124 11876 1149
5205 12795 1122
7665 12335 938
